36 20
14 633
13 640
3 560
16 685
2 250
14 26
19 919
19 730
19 592
12 792
1 205
12 109
5 627
11 87
9 199
10 366
11 492
14 843
10 141
5 392
1 225
19 14
17 189
3 710
5 290
5 500
15 734
12 177
5 615
9 795
15 299
12 172
3 360
7 305
15 624
15 643
